WARNING: for repeatability, setting FPU to use double precision
============================[ Problem Statistics ]=============================
|                                                                             |
|  Number of variables:           100                                         |
|  Number of clauses:             449                                         |
|  Parse time:                   0.00 s                                       |
|  Eliminated clauses:           0.00 Mb                                      |
|  Simplification time:          0.00 s                                       |
|                                                                             |
============================[ Search Statistics ]==============================
| Conflicts |          ORIGINAL         |          LEARNT          | Progress |
|           |    Vars  Clauses Literals |    Limit  Clauses Lit/Cl |          |
===============================================================================
|       100 |      98      446     1347 |      163      100      8 |  0.010 % |
===============================================================================
restarts              : 3
conflicts             : 220            (73456 /sec)
decisions             : 286            (0.00 % random) (95492 /sec)
propagations          : 5128           (1712187 /sec)
conflict literals     : 1747           (13.47 % deleted)
Memory used           : 13.00 MB
CPU time              : 0.002995 s

SATISFIABLE
